NAME          ClpDefau  FREE
ROWS
 N  OBJROW
 L  ZMUNI1_PCT
 L  ZMUNI2_PCT
 L  ZMUNI3_PCT
 L  ZMUNI4_PCT
 L  ZMUNI5_PCT
 L  ZMUNI6_PCT
 L  ZMUNI7_PCT
 L  ZMUNI8_PCT
 L  ZMUNI9_PCT
COLUMNS
    QMUNI1 OBJROW 1.          
    QMUNI1 ZMUNI1_PCT 28018.61763 
    QMUNI1 ZMUNI2_PCT 1847.9347   
    QMUNI1 ZMUNI3_PCT 4310.6079   
    QMUNI1 ZMUNI4_PCT 3131.90222  
    QMUNI1 ZMUNI5_PCT  -95.9396   
    QMUNI1 ZMUNI6_PCT 93.84155    
    QMUNI1 ZMUNI7_PCT 1321.9834   
    QMUNI1 ZMUNI8_PCT 1081.4667   
    QMUNI1 ZMUNI9_PCT 432.0144    
    QMUNI2 OBJROW 1.          
    QMUNI2 ZMUNI1_PCT 1796.81778  
    QMUNI2 ZMUNI2_PCT 32932.663   
    QMUNI2 ZMUNI3_PCT 2597.0459   
    QMUNI2 ZMUNI4_PCT 2711.12919  
    QMUNI2 ZMUNI5_PCT 159.5497    
    QMUNI2 ZMUNI6_PCT 234.79461   
    QMUNI2 ZMUNI7_PCT 907.5165    
    QMUNI2 ZMUNI8_PCT 1099.0143   
    QMUNI2 ZMUNI9_PCT 935.3637    
    QMUNI3 OBJROW 1.          
    QMUNI3 ZMUNI1_PCT 4427.62375  
    QMUNI3 ZMUNI2_PCT 2858.2573   
    QMUNI3 ZMUNI3_PCT 29862.9761  
    QMUNI3 ZMUNI4_PCT 5257.72572  
    QMUNI3 ZMUNI5_PCT 300.0259    
    QMUNI3 ZMUNI6_PCT 433.92181   
    QMUNI3 ZMUNI7_PCT 1494.7891   
    QMUNI3 ZMUNI8_PCT 1460.2662   
    QMUNI3 ZMUNI9_PCT 910.0914    
    QMUNI4 OBJROW 1.          
    QMUNI4 ZMUNI1_PCT 3436.66077  
    QMUNI4 ZMUNI2_PCT 3133.0109   
    QMUNI4 ZMUNI3_PCT 5654.0489   
    QMUNI4 ZMUNI4_PCT 101891.14809
    QMUNI4 ZMUNI5_PCT  -39.5775   
    QMUNI4 ZMUNI6_PCT 86.11679    
    QMUNI4 ZMUNI7_PCT 967.7887    
    QMUNI4 ZMUNI8_PCT 1055.9082   
    QMUNI4 ZMUNI9_PCT 703.0487    
    QMUNI5 OBJROW 1.          
    QMUNI5 ZMUNI1_PCT  -325.39368 
    QMUNI5 ZMUNI2_PCT  -291.4429  
    QMUNI5 ZMUNI3_PCT  -322.5327  
    QMUNI5 ZMUNI4_PCT  -277.9603  
    QMUNI5 ZMUNI5_PCT 31709.7664  
    QMUNI5 ZMUNI6_PCT 1780.89142  
    QMUNI5 ZMUNI7_PCT  -872.4212  
    QMUNI5 ZMUNI8_PCT  -856.018   
    QMUNI5 ZMUNI9_PCT  -749.1112  
    QMUNI6 OBJROW 1.          
    QMUNI6 ZMUNI1_PCT 268.45932   
    QMUNI6 ZMUNI2_PCT 76.6754     
    QMUNI6 ZMUNI3_PCT 195.9801    
    QMUNI6 ZMUNI4_PCT 146.53206   
    QMUNI6 ZMUNI5_PCT 2572.2504   
    QMUNI6 ZMUNI6_PCT 30863.66653 
    QMUNI6 ZMUNI7_PCT  -1.9073    
    QMUNI6 ZMUNI8_PCT  -198.1735  
    QMUNI6 ZMUNI9_PCT  -273.4185  
    QMUNI7 OBJROW 1.          
    QMUNI7 ZMUNI1_PCT 1531.41022  
    QMUNI7 ZMUNI2_PCT 838.089     
    QMUNI7 ZMUNI3_PCT 1347.4464   
    QMUNI7 ZMUNI4_PCT 1035.47573  
    QMUNI7 ZMUNI5_PCT 137.9967    
    QMUNI7 ZMUNI6_PCT 349.9031    
    QMUNI7 ZMUNI7_PCT 27985.1914  
    QMUNI7 ZMUNI8_PCT 1982.3075   
    QMUNI7 ZMUNI9_PCT 448.6084    
    QMUNI8 OBJROW 1.          
    QMUNI8 ZMUNI1_PCT 1105.59464  
    QMUNI8 ZMUNI2_PCT 972.6525    
    QMUNI8 ZMUNI3_PCT 1150.1312   
    QMUNI8 ZMUNI4_PCT 900.8646    
    QMUNI8 ZMUNI5_PCT  -49.305    
    QMUNI8 ZMUNI6_PCT 69.14139    
    QMUNI8 ZMUNI7_PCT 2037.8113   
    QMUNI8 ZMUNI8_PCT 26519.9662  
    QMUNI8 ZMUNI9_PCT 1035.9764   
    QMUNI9 OBJROW 1.          
    QMUNI9 ZMUNI1_PCT 682.35397   
    QMUNI9 ZMUNI2_PCT 950.5272    
    QMUNI9 ZMUNI3_PCT 776.1955    
    QMUNI9 ZMUNI4_PCT 678.30086   
    QMUNI9 ZMUNI5_PCT 182.6286    
    QMUNI9 ZMUNI6_PCT 232.21969   
    QMUNI9 ZMUNI7_PCT 615.6922    
    QMUNI9 ZMUNI8_PCT 1144.9814   
    QMUNI9 ZMUNI9_PCT 24802.494   
RHS
    RHS ZMUNI1_PCT 0.4450172265
    RHS ZMUNI2_PCT 0.3785586372
    RHS ZMUNI3_PCT  -0.23031707
    RHS ZMUNI4_PCT  -0.81414628
    RHS ZMUNI5_PCT 0.5045144319
    RHS ZMUNI6_PCT 0.7323712375
    RHS ZMUNI7_PCT  -0.51895717
    RHS ZMUNI8_PCT  -0.55871309
    RHS ZMUNI9_PCT -0.085252645
BOUNDS
 LO BOUND QMUNI1 -0.001172477
 UP BOUND QMUNI1      1.1e+10
 LO BOUND QMUNI2 -0.00082775 
 UP BOUND QMUNI2      1.1e+10
 LO BOUND QMUNI3 -0.000814219
 UP BOUND QMUNI3      1.1e+10
 LO BOUND QMUNI4 -0.000334187
 UP BOUND QMUNI4      1.1e+10
 LO BOUND QMUNI5 -0.000662785
 UP BOUND QMUNI5      1.1e+10
 LO BOUND QMUNI6 -0.000839675
 UP BOUND QMUNI6      1.1e+10
 LO BOUND QMUNI7 -0.000413367
 UP BOUND QMUNI7      1.1e+10
 LO BOUND QMUNI8 -0.000560991
 UP BOUND QMUNI8      1.1e+10
 LO BOUND QMUNI9 -0.000745894
 UP BOUND QMUNI9      1.1e+10
ENDATA
